data;
param n:=50;
param w:=1 -221 2 -43 3 -36 4 133 5 106 6 194 7 -2 8 -252 9 -175 10 168 11 -88 12 200 13 -250 14 -237 15 95 16 -19 17 223 18 -43 19 -83 20 -128 21 42 22 5 23 -154 24 215 25 -10 26 20 27 -38 28 156 29 -20 30 142 31 111 32 228 33 -171 34 -45 35 165 36 -133 37 84 38 139 39 8 40 188 41 -32 42 -88 43 -77 44 -144 45 -23 46 -209 47 97 48 -28 49 -189 50 219;
